(set-logic LIA)

(declare-const m Int)
(declare-const m! Int)
(declare-const k Int)
(declare-const k! Int)
(declare-const j Int)
(declare-const j! Int)
(declare-const c Int)
(declare-const c! Int)
(declare-const a Int)
(declare-const a! Int)

(declare-const m_30 Int)
(declare-const m_29 Int)
(declare-const m_22 Int)
(declare-const m_0 Int)
(declare-const k_28 Int)
(declare-const k_23 Int)
(declare-const k_21 Int)
(declare-const j_20 Int)
(declare-const c_0 Int)
(declare-const a_0 Int)

(define-fun inv-f((a Int)(c Int)(j Int)(k Int)(m Int)) Bool
